(declare-const p10 Real)
(declare-const fee_bl Real)
(declare-const p12 Real)
(declare-const p35 Real)
(declare-const p32 Real)
(declare-const p22 Real)
(declare-const p24 Real)
(declare-const income Real)
(declare-const p37 Real)
(assert (= p10 (* 0.10 (ite (> income 23200) 23200 income))))
(assert (= p12 (ite (> income 23200) (* 0.12 (- (ite (> income 94300) 94300 income) 23200)) 0)))
(assert (= p22 (ite (> income 94300) (* 0.22 (- (ite (> income 201050) 201050 income) 94300)) 0)))
(assert (= p24 (ite (> income 201050) (* 0.24 (- (ite (> income 383900) 383900 income) 201050)) 0)))
(assert (= p32 (ite (> income 383900) (* 0.32 (- (ite (> income 487450) 487450 income) 383900)) 0)))
(assert (= p35 (ite (> income 487450) (* 0.35 (- (ite (> income 731200) 731200 income) 487450)) 0)))
(assert (= p37 (ite (> income 731200) (* 0.37 (- income 731200)) 0)))
(assert (= fee_bl (+ (+ (+ (+ (+ (+ p10 p12) p22) p24) p32) p35) p37)))